(set-logic QF_LRA)
(declare-fun X0 () Real )
(declare-fun Y0 () Real )
(declare-fun X1 () Real )
(declare-fun Y1 () Real )
(declare-fun X2 () Real )
(declare-fun Y2 () Real )
(declare-fun X3 () Real )
(declare-fun Y3 () Real )
(declare-fun X4 () Real )
(declare-fun Y4 () Real )
(declare-fun X5 () Real )
(declare-fun Y5 () Real )
(declare-fun Z () Real )
(declare-fun k () Real )
(assert (let
(( $goal (>= Z k) ))
(let
((
$phi ( and 
( or ( <= ( + X0 94 ) X1 )  ( <= ( + X1 7 ) X0 )  ( <= ( + Y0 93 ) Y1 )  ( <= ( + Y1 73 ) Y0 )  )
( or ( <= ( + X0 94 ) X2 )  ( <= ( + X2 77 ) X0 )  ( <= ( + Y0 93 ) Y2 )  ( <= ( + Y2 100 ) Y0 )  )
( or ( <= ( + X0 94 ) X3 )  ( <= ( + X3 52 ) X0 )  ( <= ( + Y0 93 ) Y3 )  ( <= ( + Y3 27 ) Y0 )  )
( or ( <= ( + X0 94 ) X4 )  ( <= ( + X4 88 ) X0 )  ( <= ( + Y0 93 ) Y4 )  ( <= ( + Y4 26 ) Y0 )  )
( or ( <= ( + X0 94 ) X5 )  ( <= ( + X5 37 ) X0 )  ( <= ( + Y0 93 ) Y5 )  ( <= ( + Y5 17 ) Y0 )  )
( or ( <= ( + X1 7 ) X2 )  ( <= ( + X2 77 ) X1 )  ( <= ( + Y1 73 ) Y2 )  ( <= ( + Y2 100 ) Y1 )  )
( or ( <= ( + X1 7 ) X3 )  ( <= ( + X3 52 ) X1 )  ( <= ( + Y1 73 ) Y3 )  ( <= ( + Y3 27 ) Y1 )  )
( or ( <= ( + X1 7 ) X4 )  ( <= ( + X4 88 ) X1 )  ( <= ( + Y1 73 ) Y4 )  ( <= ( + Y4 26 ) Y1 )  )
( or ( <= ( + X1 7 ) X5 )  ( <= ( + X5 37 ) X1 )  ( <= ( + Y1 73 ) Y5 )  ( <= ( + Y5 17 ) Y1 )  )
( or ( <= ( + X2 77 ) X3 )  ( <= ( + X3 52 ) X2 )  ( <= ( + Y2 100 ) Y3 )  ( <= ( + Y3 27 ) Y2 )  )
( or ( <= ( + X2 77 ) X4 )  ( <= ( + X4 88 ) X2 )  ( <= ( + Y2 100 ) Y4 )  ( <= ( + Y4 26 ) Y2 )  )
( or ( <= ( + X2 77 ) X5 )  ( <= ( + X5 37 ) X2 )  ( <= ( + Y2 100 ) Y5 )  ( <= ( + Y5 17 ) Y2 )  )
( or ( <= ( + X3 52 ) X4 )  ( <= ( + X4 88 ) X3 )  ( <= ( + Y3 27 ) Y4 )  ( <= ( + Y4 26 ) Y3 )  )
( or ( <= ( + X3 52 ) X5 )  ( <= ( + X5 37 ) X3 )  ( <= ( + Y3 27 ) Y5 )  ( <= ( + Y5 17 ) Y3 )  )
( or ( <= ( + X4 88 ) X5 )  ( <= ( + X5 37 ) X4 )  ( <= ( + Y4 26 ) Y5 )  ( <= ( + Y5 17 ) Y4 )  )
( >= X0 0)
( <= ( + X0 94) Z)
( >= Y0 0)
( <= ( + Y0 93 ) 100)
( >= X1 0)
( <= ( + X1 7) Z)
( >= Y1 0)
( <= ( + Y1 73 ) 100)
( >= X2 0)
( <= ( + X2 77) Z)
( >= Y2 0)
( <= ( + Y2 100 ) 100)
( >= X3 0)
( <= ( + X3 52) Z)
( >= Y3 0)
( <= ( + Y3 27 ) 100)
( >= X4 0)
( <= ( + X4 88) Z)
( >= Y4 0)
( <= ( + Y4 26 ) 100)
( >= X5 0)
( <= ( + X5 37) Z)
( >= Y5 0)
( <= ( + Y5 17 ) 100)
) )
)(=> $phi $goal))))